Cu                                              
   1.00000000000000     
     3.6322700977325439   -3.6322700977325422   -0.0000000000000010
     0.0000000000000000    3.6322700977325439   -3.6322700977325439
    10.6165294888729864   10.6165294888729864   10.6165294888729864
   H    N    Cu   Ni
     3     2    16     4
Selective dynamics
Direct
  0.6007649864436714  0.7192245863013542  0.5852199940997774   T   T   T
  0.2831998731229884  0.3839136452200858  0.5851558421718055   T   T   T
  0.6185156799481641  0.4016868929000508  0.5851554841367373   T   T   T
  0.5008324962253189  0.5016525191221468  0.5668661575991546   T   T   T
  0.8341883743006426  0.1685037682171040  0.5054773467068912   T   T   T
  0.3333333333333357  0.6666666666666643  0.0000000000000000   F   F   F
  0.0000000000000000  0.0000000000000000  0.1140444907644422   F   F   F
  0.6666666666666643  0.3333333333333357  0.2280889815288774   F   F   F
  0.3333333333333357  0.1666666666666643  0.0000000000000000   F   F   F
  0.0000000000000000  0.5000000000000000  0.1140444907644422   F   F   F
  0.6666666666666643  0.8333333333333357  0.2280889815288774   F   F   F
  0.8333333333333357  0.1666666666666643  0.0000000000000000   F   F   F
  0.5000000000000000  0.5000000000000000  0.1140444907644422   F   F   F
  0.1666666666666643  0.8333333333333357  0.2280889815288774   F   F   F
  0.8333333333333357  0.6666666666666643  0.0000000000000000   F   F   F
  0.5000000000000000  0.0000000000000000  0.1140444907644422   F   F   F
  0.1666666666666643  0.3333333333333357  0.2280889815288774   F   F   F
  0.3349071671257655  0.6665362572118961  0.3429600890407361   T   T   T
  0.3346546807773403  0.1696795381479174  0.3429842994881453   T   T   T
  0.8335998990005383  0.1673741588730045  0.3389868567661909   T   T   T
  0.8316131332349767  0.6664747511931822  0.3429657108300556   T   T   T
  0.0029883273758329 -0.0013399912410911  0.4534801375976262   T   T   T
  0.0035006840970014  0.5065970744746299  0.4533876980966751   T   T   T
  0.5007842690537365  0.5016185214227606  0.4569870552441534   T   T   T
  0.4956163154716918 -0.0008310641352984  0.4534828722245025   T   T   T
